(set-logic QF_BV)
(declare-fun _substvar_1818_ () Bool)
(declare-fun _substvar_1493_ () (_ BitVec 31))
(declare-fun _substvar_1891_ () (_ BitVec 1))
(declare-fun _substvar_1524_ () (_ BitVec 31))
(declare-fun _substvar_1560_ () (_ BitVec 31))
(declare-fun _substvar_485_ () (_ BitVec 31))
(declare-fun _substvar_1840_ () Bool)
(assert (and true true true true true true true true true true true true true true true true true true true true true true true true true true true true (ite _substvar_1840_ (= _substvar_1493_ (_ bv0 31)) (= _substvar_1493_ (concat (_ bv0 30) _substvar_1891_))) (ite _substvar_1818_ (= _substvar_1524_ (_ bv0 31)) (= _substvar_1524_ (concat ((_ extract 29 0) _substvar_1493_) (bvxor ((_ extract 30 30) _substvar_1493_) ((_ extract 27 27) _substvar_1493_))))) (= _substvar_1560_ (concat ((_ extract 29 0) _substvar_1524_) (_ bv0 1))) (= _substvar_485_ (concat (_ bv0 30) (bvxor ((_ extract 30 30) _substvar_1560_) ((_ extract 27 27) _substvar_1560_)))) true true true true true true true true true true true true true true true true true true true true true true true true true true true true true true true true true true true true true true true true true true true true true true true true true true true true true true true true true true true true true true true true true true true true true true true true true true true true true true true true true true true true true true true true true true true true true true true true true true true true true true true true true true true true true true true true true true true true true true true true true true true true true true true true true true true true (= (or false false false false false false false (= _substvar_485_ (_ bv0 31)) false false false false false false false false false false false false false false false false false false false false) false)))
(check-sat)
(exit)
